NAME: random-98-31570
TYPE: TSP
COMMENT: size=98 seed=31570
DIMENSION: 198
EDGE_WEIGHT_TYPE: EUC_2D
NODE_COORD_SECTION
+0 990 586
-0 990 586
+1 207 976
-1 285 603
+2 195 454
-2 571 191
+3 689 63
-3 101 576
+4 754 309
-4 512 670
+5 250 723
-5 459 159
+6 889 965
-6 189 792
+7 69 958
-7 804 706
+8 445 984
-8 714 596
+9 146 217
-9 341 119
+10 237 747
-10 352 919
+11 954 432
-11 780 160
+12 557 771
-12 464 803
+13 178 414
-13 133 668
+14 407 387
-14 259 646
+15 867 851
-15 477 743
+16 814 892
-16 796 552
+17 720 594
-17 731 1
+18 641 107
-18 622 666
+19 128 613
-19 723 525
+20 852 401
-20 30 672
+21 420 672
-21 276 333
+22 926 216
-22 593 620
+23 443 752
-23 973 191
+24 297 888
-24 866 322
+25 156 806
-25 121 997
+26 846 651
-26 733 469
+27 396 441
-27 610 589
+28 974 110
-28 228 659
+29 119 178
-29 499 141
+30 16 294
-30 762 447
+31 494 137
-31 387 369
+32 50 812
-32 646 555
+33 78 670
-33 730 690
+34 78 761
-34 31 552
+35 337 856
-35 281 471
+36 946 412
-36 181 79
+37 477 386
-37 137 233
+38 384 848
-38 314 808
+39 730 880
-39 122 429
+40 982 540
-40 780 748
+41 595 725
-41 192 579
+42 556 789
-42 593 107
+43 787 20
-43 859 449
+44 617 175
-44 682 812
+45 452 177
-45 954 666
+46 706 85
-46 982 432
+47 398 881
-47 661 229
+48 712 480
-48 183 709
+49 942 445
-49 787 995
+50 183 454
-50 152 610
+51 962 499
-51 868 530
+52 875 0
-52 928 359
+53 126 114
-53 366 246
+54 694 555
-54 265 756
+55 66 29
-55 481 794
+56 456 785
-56 714 466
+57 467 684
-57 295 441
+58 296 962
-58 951 332
+59 802 790
-59 361 521
+60 237 696
-60 277 565
+61 294 121
-61 646 257
+62 42 344
-62 434 191
+63 702 523
-63 898 941
+64 448 875
-64 110 945
+65 970 936
-65 482 340
+66 537 985
-66 883 773
+67 417 725
-67 517 539
+68 371 67
-68 883 288
+69 685 618
-69 461 671
+70 739 861
-70 195 410
+71 792 104
-71 731 907
+72 929 582
-72 433 117
+73 927 964
-73 812 414
+74 488 954
-74 966 90
+75 150 490
-75 108 561
+76 693 485
-76 498 689
+77 949 431
-77 472 787
+78 48 706
-78 131 749
+79 285 982
-79 773 401
+80 752 477
-80 300 398
+81 416 498
-81 740 88
+82 985 313
-82 93 474
+83 561 51
-83 532 779
+84 181 110
-84 766 438
+85 24 944
-85 422 926
+86 152 885
-86 32 860
+87 253 345
-87 488 914
+88 815 560
-88 259 951
+89 205 912
-89 183 815
+90 97 403
-90 258 704
+91 903 718
-91 638 955
+92 667 42
-92 840 674
+93 995 491
-93 182 884
+94 558 852
-94 291 283
+95 216 296
-95 162 447
+96 112 972
-96 344 976
+97 244 901
-97 617 976
+98 991 920
-98 233 284
PRECEDENCE_SECTION
+0 -0
+1 -1
+2 -2
+3 -3
+4 -4
+5 -5
+6 -6
+7 -7
+8 -8
+9 -9
+10 -10
+11 -11
+12 -12
+13 -13
+14 -14
+15 -15
+16 -16
+17 -17
+18 -18
+19 -19
+20 -20
+21 -21
+22 -22
+23 -23
+24 -24
+25 -25
+26 -26
+27 -27
+28 -28
+29 -29
+30 -30
+31 -31
+32 -32
+33 -33
+34 -34
+35 -35
+36 -36
+37 -37
+38 -38
+39 -39
+40 -40
+41 -41
+42 -42
+43 -43
+44 -44
+45 -45
+46 -46
+47 -47
+48 -48
+49 -49
+50 -50
+51 -51
+52 -52
+53 -53
+54 -54
+55 -55
+56 -56
+57 -57
+58 -58
+59 -59
+60 -60
+61 -61
+62 -62
+63 -63
+64 -64
+65 -65
+66 -66
+67 -67
+68 -68
+69 -69
+70 -70
+71 -71
+72 -72
+73 -73
+74 -74
+75 -75
+76 -76
+77 -77
+78 -78
+79 -79
+80 -80
+81 -81
+82 -82
+83 -83
+84 -84
+85 -85
+86 -86
+87 -87
+88 -88
+89 -89
+90 -90
+91 -91
+92 -92
+93 -93
+94 -94
+95 -95
+96 -96
+97 -97
+98 -98
EOF
